691832
180,121,219,190,99,202,105,175,54,18,56,92,53,100,216,66,24,141,106,128,41,222,77,158,149,115,2,204,172,168,230,104,212,45,213,93,52,132,80,25,61,182,148,131,124,188,85,123,167,79,95,84,193,119,86,70,195,136,181,173,206,218,209,126,191,152,122,73,113,160,42,98,51,177,226,69,23,159,199,178,31,43,39,74,157,83,135,162,229,133,155,112,27,169,40,81,130,102,62,55,151,87,35,94,108,50,28,78,215,75,205,34,37,192,179,196,107,89,116,161,184,101,166,96,9,68,144,91,26,22,117,20,183,210,7,36,1,72,63,32,118,140,71,49,67,207,147,127,163,208,189,16,185,3,138,60,137,15,30,8,110,14,201,10,65,154,164,200,198,114,29,174,57,221,59,58,139,76,11,143,197,214,46,125,227,19,134,165,120,97,194,13,48,111,225,47,17,223,176,220,44,64,5,156,145,211,6,203,38,224,33,129,153,217,21,4,142,170,90,150,171,186,109,228,88,146,12,187,103,82,180